Welcome to the CBC MILP Solver 
Version: 2.10.12 
Build Date: Aug 20 2024 

command line - /opt/homebrew/bin/cbc computational_data/real_data/lp/wine_trial_011_lex.lp seconds 10.0 solve solu computational_data/real_data/solutions/wine_trial_011_lex.sol (default strategy 1)
 CoinLpIO::readLp(): Maximization problem reformulated as minimization
Coin0009I Switching back to maximization to get correct duals etc
seconds was changed from 1e+100 to 10
Continuous objective value is 7.69444 - 0.00 seconds
Cgl0003I 0 fixed, 0 tightened bounds, 34 strengthened rows, 0 substitutions
Cgl0003I 0 fixed, 0 tightened bounds, 47 strengthened rows, 0 substitutions
Cgl0003I 0 fixed, 0 tightened bounds, 38 strengthened rows, 0 substitutions
Cgl0003I 0 fixed, 0 tightened bounds, 17 strengthened rows, 0 substitutions
Cgl0003I 0 fixed, 0 tightened bounds, 11 strengthened rows, 0 substitutions
Cgl0003I 0 fixed, 0 tightened bounds, 6 strengthened rows, 0 substitutions
Cgl0003I 0 fixed, 0 tightened bounds, 4 strengthened rows, 0 substitutions
Cgl0003I 0 fixed, 0 tightened bounds, 2 strengthened rows, 0 substitutions
Cgl0003I 0 fixed, 0 tightened bounds, 2 strengthened rows, 0 substitutions
Cgl0004I processed model has 71 rows, 30 columns (30 integer (30 of which binary)) and 376 elements
Cbc0038I Initial state - 13 integers unsatisfied sum - 6.5
Cbc0038I Pass   1: suminf.    6.00000 (12) obj. 7.63889 iterations 15
Cbc0038I Pass   2: suminf.    6.00000 (12) obj. 7.63889 iterations 9
Cbc0038I Pass   3: suminf.    6.00000 (12) obj. 7.63889 iterations 7
Cbc0038I Pass   4: suminf.    6.00000 (12) obj. 7.63889 iterations 8
Cbc0038I Pass   5: suminf.    5.00000 (10) obj. 7.625 iterations 13
Cbc0038I Pass   6: suminf.    4.40000 (13) obj. 7.62778 iterations 12
Cbc0038I Pass   7: suminf.    0.00000 (0) obj. 7.61111 iterations 10
Cbc0038I Solution found of 7.61111
Cbc0038I Before mini branch and bound, 4 integers at bound fixed and 0 continuous
Cbc0038I Full problem 71 rows 30 columns, reduced to 62 rows 26 columns
Cbc0038I Mini branch and bound did not improve solution (0.01 seconds)
Cbc0038I Round again with cutoff of 7.61529
Cbc0038I Pass   8: suminf.    6.00000 (12) obj. 7.63889 iterations 0
Cbc0038I Pass   9: suminf.    6.00000 (12) obj. 7.63889 iterations 5
Cbc0038I Pass  10: suminf.    5.00000 (10) obj. 7.625 iterations 8
Cbc0038I Pass  11: suminf.    4.40000 (13) obj. 7.62778 iterations 9
Cbc0038I Pass  12: suminf.    0.42092 (8) obj. 7.61529 iterations 16
Cbc0038I Pass  13: suminf.    0.40087 (17) obj. 7.61529 iterations 6
Cbc0038I Pass  14: suminf.    6.50000 (13) obj. 7.65278 iterations 17
Cbc0038I Pass  15: suminf.    6.00000 (12) obj. 7.63889 iterations 10
Cbc0038I Pass  16: suminf.    6.00000 (12) obj. 7.63889 iterations 4
Cbc0038I Pass  17: suminf.    6.00000 (12) obj. 7.63889 iterations 7
Cbc0038I Pass  18: suminf.    3.50000 (13) obj. 7.61529 iterations 18
Cbc0038I Pass  19: suminf.    0.38656 (9) obj. 7.61529 iterations 21
Cbc0038I Pass  20: suminf.    0.38656 (9) obj. 7.61529 iterations 1
Cbc0038I Pass  21: suminf.    3.66667 (11) obj. 7.62037 iterations 22
Cbc0038I Pass  22: suminf.    0.38656 (9) obj. 7.61529 iterations 15
Cbc0038I Pass  23: suminf.    0.42091 (16) obj. 7.61529 iterations 11
Cbc0038I Pass  24: suminf.    0.38656 (9) obj. 7.61529 iterations 5
Cbc0038I Pass  25: suminf.    3.66667 (11) obj. 7.62037 iterations 24
Cbc0038I Pass  26: suminf.    0.38656 (9) obj. 7.61529 iterations 14
Cbc0038I Pass  27: suminf.    0.56373 (11) obj. 7.61529 iterations 17
Cbc0038I Pass  28: suminf.    0.38656 (9) obj. 7.61529 iterations 13
Cbc0038I Pass  29: suminf.    3.66667 (11) obj. 7.62037 iterations 18
Cbc0038I Pass  30: suminf.    0.38656 (9) obj. 7.61529 iterations 14
Cbc0038I Pass  31: suminf.    0.38656 (9) obj. 7.61529 iterations 10
Cbc0038I Pass  32: suminf.    3.66667 (11) obj. 7.62037 iterations 17
Cbc0038I Pass  33: suminf.    0.80174 (14) obj. 7.61529 iterations 14
Cbc0038I Pass  34: suminf.    0.38656 (9) obj. 7.61529 iterations 13
Cbc0038I Pass  35: suminf.    3.66667 (11) obj. 7.62037 iterations 20
Cbc0038I Pass  36: suminf.    0.38656 (9) obj. 7.61529 iterations 12
Cbc0038I Pass  37: suminf.    0.38656 (9) obj. 7.61529 iterations 9
Cbc0038I No solution found this major pass
Cbc0038I Before mini branch and bound, 3 integers at bound fixed and 0 continuous
Cbc0038I Full problem 71 rows 30 columns, reduced to 65 rows 27 columns
Cbc0038I Mini branch and bound did not improve solution (0.03 seconds)
Cbc0038I After 0.03 seconds - Feasibility pump exiting with objective of 7.61111 - took 0.02 seconds
Cbc0012I Integer solution of 7.61111 found by feasibility pump after 0 iterations and 0 nodes (0.03 seconds)
Cbc0038I Full problem 71 rows 30 columns, reduced to 37 rows 15 columns
Cbc0031I 5 added rows had average density of 14
Cbc0013I At root node, 23 cuts changed objective from 7.652777 to 7.61111 in 3 passes
Cbc0014I Cut generator 0 (Probing) - 4 row cuts average 4.0 elements, 0 column cuts (0 active)  in 0.000 seconds - new frequency is 1
Cbc0014I Cut generator 1 (Gomory) - 11 row cuts average 24.4 elements, 0 column cuts (0 active)  in 0.000 seconds - new frequency is 1
Cbc0014I Cut generator 2 (Knapsack) - 0 row cuts average 0.0 elements, 0 column cuts (0 active)  in 0.000 seconds - new frequency is -100
Cbc0014I Cut generator 3 (Clique) - 0 row cuts average 0.0 elements, 0 column cuts (0 active)  in 0.000 seconds - new frequency is -100
Cbc0014I Cut generator 4 (MixedIntegerRounding2) - 0 row cuts average 0.0 elements, 0 column cuts (0 active)  in 0.000 seconds - new frequency is -100
Cbc0014I Cut generator 5 (FlowCover) - 0 row cuts average 0.0 elements, 0 column cuts (0 active)  in 0.000 seconds - new frequency is -100
Cbc0014I Cut generator 6 (TwoMirCuts) - 21 row cuts average 22.1 elements, 0 column cuts (0 active)  in 0.000 seconds - new frequency is -100
Cbc0001I Search completed - best objective 7.61111, took 31 iterations and 0 nodes (0.03 seconds)
Cbc0035I Maximum depth 0, 0 variables fixed on reduced cost
Cuts at root node changed objective from 7.65278 to 7.61111
Probing was tried 3 times and created 4 cuts of which 0 were active after adding rounds of cuts (0.000 seconds)
Gomory was tried 3 times and created 11 cuts of which 0 were active after adding rounds of cuts (0.000 seconds)
Knapsack was tried 3 times and created 0 cuts of which 0 were active after adding rounds of cuts (0.000 seconds)
Clique was tried 3 times and created 0 cuts of which 0 were active after adding rounds of cuts (0.000 seconds)
MixedIntegerRounding2 was tried 3 times and created 0 cuts of which 0 were active after adding rounds of cuts (0.000 seconds)
FlowCover was tried 3 times and created 0 cuts of which 0 were active after adding rounds of cuts (0.000 seconds)
TwoMirCuts was tried 3 times and created 21 cuts of which 0 were active after adding rounds of cuts (0.000 seconds)
ZeroHalf was tried 1 times and created 0 cuts of which 0 were active after adding rounds of cuts (0.000 seconds)

Result - Optimal solution found

Objective value:                7.61111000
Enumerated nodes:               0
Total iterations:               31
Time (CPU seconds):             0.03
Time (Wallclock seconds):       0.03

Total time (CPU seconds):       0.03   (Wallclock seconds):       0.03

